84 300 161 192 184 168 187 191 180 159 175 169 163 175 172 166 164 172 159 196 152 157 196 187 186 200 155 177 177 189 174 182 162 186 174 197 178 160 161 157 194 160 150 156 185 173 198 174 169 181 194 172 188 189 158 198 162 188 175 190 150 199 171 188 158 169 184 160 153 169 168 197 179 168 178 188 165 175 161 185 155 179 156 167 168 189 